# Instance created by Brandimarte (1993)
55 45 6
0 1
1 2
2 3
3 4
4 5
6 7
7 8
8 9
9 10
11 12
12 13
13 14
14 15
16 17
17 18
18 19
19 20
21 22
22 23
23 24
24 25
25 26
27 28
28 29
29 30
30 31
31 32
33 34
34 35
35 36
36 37
38 39
39 40
40 41
41 42
43 44
44 45
45 46
46 47
47 48
49 50
50 51
51 52
52 53
53 54
2 0 5 2 4
3 4 3 2 5 1 1
2 2 4 5 2
3 5 5 1 6 0 1
1 2 1
3 5 6 2 6 3 3
1 1 6
1 2 1
1 0 2
2 1 6 3 6
3 5 5 1 6 0 1
1 1 6
2 2 4 5 2
3 5 5 1 6 0 1
3 2 4 1 6 5 6
2 0 1 4 5
3 5 5 1 6 0 1
1 1 6
1 2 1
3 4 3 2 5 1 1
2 2 4 5 2
3 4 3 2 5 1 1
3 5 5 1 6 0 1
1 1 6
2 0 5 2 4
2 1 6 3 6
3 2 4 1 6 5 6
2 2 4 5 2
1 0 2
3 2 4 1 6 5 6
1 1 6
3 5 5 1 6 0 1
2 0 3 3 2
1 5 1
2 0 3 3 2
3 2 4 1 6 5 6
3 1 6 4 1 0 6
1 2 1
2 2 4 5 2
3 2 4 1 6 5 6
3 5 5 1 6 0 1
1 1 6
2 1 6 3 6
1 5 1
2 0 1 4 5
3 5 6 2 6 3 3
1 0 2
3 2 4 1 6 5 6
2 1 6 3 6
2 2 4 5 2
3 2 4 1 6 5 6
3 4 3 2 5 1 1
1 5 1
2 1 6 3 6
2 0 3 3 2
